(set-logic QF_S)
(declare-fun var0 () String)
(declare-fun var1 () Int)
(declare-fun var2 () String)
(declare-fun var3 () Int)
(declare-fun var4 () String)
(declare-fun var5 () String)
(declare-fun var6 () Int)
(declare-fun var7 () Int)
(assert (str.in.re (str.at (str.at var0 var1) (str.to.int var2)) (re.* (re.* re.allchar))))
(assert (str.prefixof (str.at (str.at """TChLTVp?" var3) (str.to.int var4)) (str.replace (str.replace var5 var4 var4) (str.substr var0 52 var6) (str.substr var2 var7 var1))))
(assert (> (str.len "J|e3.F3K") (str.len var4)))
(assert (str.prefixof var5 "C~,"))
(check-sat)